p cnf 448 2379
1 0
-2 0
-3 0
-4 0
-5 0
-6 0
-7 0
50 8 0
-50 -8 0
-8 -344 0
-8 -345 0
-8 -346 0
-9 344 0
-9 -345 0
-9 -346 0
-10 -344 0
-10 345 0
-10 -346 0
-11 344 0
-11 345 0
-11 -346 0
-12 -344 0
-12 -345 0
-12 346 0
-13 344 0
-13 -345 0
-13 346 0
-14 -344 0
-14 345 0
-14 346 0
-8 1 15 0
-8 1 57 0
-8 15 57 0
-9 2 16 0
-9 2 58 0
-9 16 58 0
-10 3 17 0
-10 3 59 0
-10 17 59 0
-11 4 18 0
-11 4 60 0
-11 18 60 0
-12 5 19 0
-12 5 61 0
-12 19 61 0
-13 6 20 0
-13 6 62 0
-13 20 62 0
-14 7 21 0
-14 7 63 0
-14 21 63 0
-8 -1 -15 -57 0
-9 -2 -16 -58 0
-10 -3 -17 -59 0
-11 -4 -18 -60 0
-12 -5 -19 -61 0
-13 -6 -20 -62 0
-14 -7 -21 -63 0
-15 -347 0
-15 -348 0
-15 -349 0
-16 347 0
-16 -348 0
-16 -349 0
-17 -347 0
-17 348 0
-17 -349 0
-18 347 0
-18 348 0
-18 -349 0
-19 -347 0
-19 -348 0
-19 349 0
-20 347 0
-20 -348 0
-20 349 0
-21 -347 0
-21 348 0
-21 349 0
-15 8 22 0
-15 8 64 0
-15 22 64 0
-16 9 23 0
-16 9 65 0
-16 23 65 0
-17 10 24 0
-17 10 66 0
-17 24 66 0
-18 11 25 0
-18 11 67 0
-18 25 67 0
-19 12 26 0
-19 12 68 0
-19 26 68 0
-20 13 27 0
-20 13 69 0
-20 27 69 0
-21 14 28 0
-21 14 70 0
-21 28 70 0
-15 -8 -22 -64 0
-16 -9 -23 -65 0
-17 -10 -24 -66 0
-18 -11 -25 -67 0
-19 -12 -26 -68 0
-20 -13 -27 -69 0
-21 -14 -28 -70 0
-22 -350 0
-22 -351 0
-22 -352 0
-23 350 0
-23 -351 0
-23 -352 0
-24 -350 0
-24 351 0
-24 -352 0
-25 350 0
-25 351 0
-25 -352 0
-26 -350 0
-26 -351 0
-26 352 0
-27 350 0
-27 -351 0
-27 352 0
-28 -350 0
-28 351 0
-28 352 0
-22 15 29 0
-22 15 71 0
-22 29 71 0
-23 16 30 0
-23 16 72 0
-23 30 72 0
-24 17 31 0
-24 17 73 0
-24 31 73 0
-25 18 32 0
-25 18 74 0
-25 32 74 0
-26 19 33 0
-26 19 75 0
-26 33 75 0
-27 20 34 0
-27 20 76 0
-27 34 76 0
-28 21 35 0
-28 21 77 0
-28 35 77 0
-22 -15 -29 -71 0
-23 -16 -30 -72 0
-24 -17 -31 -73 0
-25 -18 -32 -74 0
-26 -19 -33 -75 0
-27 -20 -34 -76 0
-28 -21 -35 -77 0
30 0
-29 0
-31 0
-32 0
-33 0
-34 0
-35 0
23 37 79 0
-23 -37 0
-23 -79 0
-37 -79 0
38 0
-36 0
-37 0
-39 0
-40 0
-41 0
-42 0
31 45 87 0
-31 -45 0
-31 -87 0
-45 -87 0
-43 -353 0
-43 -354 0
-43 -355 0
-44 353 0
-44 -354 0
-44 -355 0
-45 -353 0
-45 354 0
-45 -355 0
-46 353 0
-46 354 0
-46 -355 0
-47 -353 0
-47 -354 0
-47 355 0
-48 353 0
-48 -354 0
-48 355 0
-49 -353 0
-49 354 0
-49 355 0
-43 92 0
-43 36 0
-44 93 0
-44 37 0
-45 94 0
-45 38 0
-46 95 0
-46 39 0
-47 96 0
-47 40 0
-48 97 0
-48 41 0
-49 98 0
-49 42 0
-50 -356 0
-50 -357 0
-50 -358 0
-51 356 0
-51 -357 0
-51 -358 0
-52 -356 0
-52 357 0
-52 -358 0
-53 356 0
-53 357 0
-53 -358 0
-54 -356 0
-54 -357 0
-54 358 0
-55 356 0
-55 -357 0
-55 358 0
-56 -356 0
-56 357 0
-56 358 0
-50 99 57 0
-50 99 1 0
-50 57 1 0
-51 100 58 0
-51 100 2 0
-51 58 2 0
-52 101 59 0
-52 101 3 0
-52 59 3 0
-53 102 60 0
-53 102 4 0
-53 60 4 0
-54 103 61 0
-54 103 5 0
-54 61 5 0
-55 104 62 0
-55 104 6 0
-55 62 6 0
-56 105 63 0
-56 105 7 0
-56 63 7 0
-50 -99 -57 -1 0
-51 -100 -58 -2 0
-52 -101 -59 -3 0
-53 -102 -60 -4 0
-54 -103 -61 -5 0
-55 -104 -62 -6 0
-56 -105 -63 -7 0
-57 -359 0
-57 -360 0
-57 -361 0
-58 359 0
-58 -360 0
-58 -361 0
-59 -359 0
-59 360 0
-59 -361 0
-60 359 0
-60 360 0
-60 -361 0
-61 -359 0
-61 -360 0
-61 361 0
-62 359 0
-62 -360 0
-62 361 0
-63 -359 0
-63 360 0
-63 361 0
-57 106 64 8 0
-57 106 64 50 0
-57 106 8 50 0
-57 64 8 50 0
-58 107 65 9 0
-58 107 65 51 0
-58 107 9 51 0
-58 65 9 51 0
-59 108 66 10 0
-59 108 66 52 0
-59 108 10 52 0
-59 66 10 52 0
-60 109 67 11 0
-60 109 67 53 0
-60 109 11 53 0
-60 67 11 53 0
-61 110 68 12 0
-61 110 68 54 0
-61 110 12 54 0
-61 68 12 54 0
-62 111 69 13 0
-62 111 69 55 0
-62 111 13 55 0
-62 69 13 55 0
-63 112 70 14 0
-63 112 70 56 0
-63 112 14 56 0
-63 70 14 56 0
-57 -106 -64 -8 0
-57 -106 -64 -50 0
-57 -106 -8 -50 0
-57 -64 -8 -50 0
-58 -107 -65 -9 0
-58 -107 -65 -51 0
-58 -107 -9 -51 0
-58 -65 -9 -51 0
-59 -108 -66 -10 0
-59 -108 -66 -52 0
-59 -108 -10 -52 0
-59 -66 -10 -52 0
-60 -109 -67 -11 0
-60 -109 -67 -53 0
-60 -109 -11 -53 0
-60 -67 -11 -53 0
-61 -110 -68 -12 0
-61 -110 -68 -54 0
-61 -110 -12 -54 0
-61 -68 -12 -54 0
-62 -111 -69 -13 0
-62 -111 -69 -55 0
-62 -111 -13 -55 0
-62 -69 -13 -55 0
-63 -112 -70 -14 0
-63 -112 -70 -56 0
-63 -112 -14 -56 0
-63 -70 -14 -56 0
67 0
-64 0
-65 0
-66 0
-68 0
-69 0
-70 0
116 74 18 60 0
-116 -74 0
-116 -18 0
-116 -60 0
-74 -18 0
-74 -60 0
-18 -60 0
-71 -362 0
-71 -363 0
-71 -364 0
-72 362 0
-72 -363 0
-72 -364 0
-73 -362 0
-73 363 0
-73 -364 0
-74 362 0
-74 363 0
-74 -364 0
-75 -362 0
-75 -363 0
-75 364 0
-76 362 0
-76 -363 0
-76 364 0
-77 -362 0
-77 363 0
-77 364 0
-71 120 78 22 0
-71 120 78 64 0
-71 120 22 64 0
-71 78 22 64 0
-72 121 79 23 0
-72 121 79 65 0
-72 121 23 65 0
-72 79 23 65 0
-73 122 80 24 0
-73 122 80 66 0
-73 122 24 66 0
-73 80 24 66 0
-74 123 81 25 0
-74 123 81 67 0
-74 123 25 67 0
-74 81 25 67 0
-75 124 82 26 0
-75 124 82 68 0
-75 124 26 68 0
-75 82 26 68 0
-76 125 83 27 0
-76 125 83 69 0
-76 125 27 69 0
-76 83 27 69 0
-77 126 84 28 0
-77 126 84 70 0
-77 126 28 70 0
-77 84 28 70 0
-71 -120 -78 -22 0
-71 -120 -78 -64 0
-71 -120 -22 -64 0
-71 -78 -22 -64 0
-72 -121 -79 -23 0
-72 -121 -79 -65 0
-72 -121 -23 -65 0
-72 -79 -23 -65 0
-73 -122 -80 -24 0
-73 -122 -80 -66 0
-73 -122 -24 -66 0
-73 -80 -24 -66 0
-74 -123 -81 -25 0
-74 -123 -81 -67 0
-74 -123 -25 -67 0
-74 -81 -25 -67 0
-75 -124 -82 -26 0
-75 -124 -82 -68 0
-75 -124 -26 -68 0
-75 -82 -26 -68 0
-76 -125 -83 -27 0
-76 -125 -83 -69 0
-76 -125 -27 -69 0
-76 -83 -27 -69 0
-77 -126 -84 -28 0
-77 -126 -84 -70 0
-77 -126 -28 -70 0
-77 -84 -28 -70 0
-78 -365 0
-78 -366 0
-78 -367 0
-79 365 0
-79 -366 0
-79 -367 0
-80 -365 0
-80 366 0
-80 -367 0
-81 365 0
-81 366 0
-81 -367 0
-82 -365 0
-82 -366 0
-82 367 0
-83 365 0
-83 -366 0
-83 367 0
-84 -365 0
-84 366 0
-84 367 0
-78 127 85 29 0
-78 127 85 71 0
-78 127 29 71 0
-78 85 29 71 0
-79 128 86 30 0
-79 128 86 72 0
-79 128 30 72 0
-79 86 30 72 0
-80 129 87 31 0
-80 129 87 73 0
-80 129 31 73 0
-80 87 31 73 0
-81 130 88 32 0
-81 130 88 74 0
-81 130 32 74 0
-81 88 32 74 0
-82 131 89 33 0
-82 131 89 75 0
-82 131 33 75 0
-82 89 33 75 0
-83 132 90 34 0
-83 132 90 76 0
-83 132 34 76 0
-83 90 34 76 0
-84 133 91 35 0
-84 133 91 77 0
-84 133 35 77 0
-84 91 35 77 0
-78 -127 -85 -29 0
-78 -127 -85 -71 0
-78 -127 -29 -71 0
-78 -85 -29 -71 0
-79 -128 -86 -30 0
-79 -128 -86 -72 0
-79 -128 -30 -72 0
-79 -86 -30 -72 0
-80 -129 -87 -31 0
-80 -129 -87 -73 0
-80 -129 -31 -73 0
-80 -87 -31 -73 0
-81 -130 -88 -32 0
-81 -130 -88 -74 0
-81 -130 -32 -74 0
-81 -88 -32 -74 0
-82 -131 -89 -33 0
-82 -131 -89 -75 0
-82 -131 -33 -75 0
-82 -89 -33 -75 0
-83 -132 -90 -34 0
-83 -132 -90 -76 0
-83 -132 -34 -76 0
-83 -90 -34 -76 0
-84 -133 -91 -35 0
-84 -133 -91 -77 0
-84 -133 -35 -77 0
-84 -91 -35 -77 0
86 0
-85 0
-87 0
-88 0
-89 0
-90 0
-91 0
135 93 37 79 0
-135 -93 0
-135 -37 0
-135 -79 0
-93 -37 0
-93 -79 0
-37 -79 0
-92 -368 0
-92 -369 0
-92 -370 0
-93 368 0
-93 -369 0
-93 -370 0
-94 -368 0
-94 369 0
-94 -370 0
-95 368 0
-95 369 0
-95 -370 0
-96 -368 0
-96 -369 0
-96 370 0
-97 368 0
-97 -369 0
-97 370 0
-98 -368 0
-98 369 0
-98 370 0
-92 141 85 0
-92 141 43 0
-92 85 43 0
-93 142 86 0
-93 142 44 0
-93 86 44 0
-94 143 87 0
-94 143 45 0
-94 87 45 0
-95 144 88 0
-95 144 46 0
-95 88 46 0
-96 145 89 0
-96 145 47 0
-96 89 47 0
-97 146 90 0
-97 146 48 0
-97 90 48 0
-98 147 91 0
-98 147 49 0
-98 91 49 0
-92 -141 -85 -43 0
-93 -142 -86 -44 0
-94 -143 -87 -45 0
-95 -144 -88 -46 0
-96 -145 -89 -47 0
-97 -146 -90 -48 0
-98 -147 -91 -49 0
-99 -371 0
-99 -372 0
-99 -373 0
-100 371 0
-100 -372 0
-100 -373 0
-101 -371 0
-101 372 0
-101 -373 0
-102 371 0
-102 372 0
-102 -373 0
-103 -371 0
-103 -372 0
-103 373 0
-104 371 0
-104 -372 0
-104 373 0
-105 -371 0
-105 372 0
-105 373 0
-99 148 106 0
-99 148 50 0
-99 106 50 0
-100 149 107 0
-100 149 51 0
-100 107 51 0
-101 150 108 0
-101 150 52 0
-101 108 52 0
-102 151 109 0
-102 151 53 0
-102 109 53 0
-103 152 110 0
-103 152 54 0
-103 110 54 0
-104 153 111 0
-104 153 55 0
-104 111 55 0
-105 154 112 0
-105 154 56 0
-105 112 56 0
-99 -148 -106 -50 0
-100 -149 -107 -51 0
-101 -150 -108 -52 0
-102 -151 -109 -53 0
-103 -152 -110 -54 0
-104 -153 -111 -55 0
-105 -154 -112 -56 0
-106 -374 0
-106 -375 0
-106 -376 0
-107 374 0
-107 -375 0
-107 -376 0
-108 -374 0
-108 375 0
-108 -376 0
-109 374 0
-109 375 0
-109 -376 0
-110 -374 0
-110 -375 0
-110 376 0
-111 374 0
-111 -375 0
-111 376 0
-112 -374 0
-112 375 0
-112 376 0
-106 155 113 57 0
-106 155 113 99 0
-106 155 57 99 0
-106 113 57 99 0
-107 156 114 58 0
-107 156 114 100 0
-107 156 58 100 0
-107 114 58 100 0
-108 157 115 59 0
-108 157 115 101 0
-108 157 59 101 0
-108 115 59 101 0
-109 158 116 60 0
-109 158 116 102 0
-109 158 60 102 0
-109 116 60 102 0
-110 159 117 61 0
-110 159 117 103 0
-110 159 61 103 0
-110 117 61 103 0
-111 160 118 62 0
-111 160 118 104 0
-111 160 62 104 0
-111 118 62 104 0
-112 161 119 63 0
-112 161 119 105 0
-112 161 63 105 0
-112 119 63 105 0
-106 -155 -113 -57 0
-106 -155 -113 -99 0
-106 -155 -57 -99 0
-106 -113 -57 -99 0
-107 -156 -114 -58 0
-107 -156 -114 -100 0
-107 -156 -58 -100 0
-107 -114 -58 -100 0
-108 -157 -115 -59 0
-108 -157 -115 -101 0
-108 -157 -59 -101 0
-108 -115 -59 -101 0
-109 -158 -116 -60 0
-109 -158 -116 -102 0
-109 -158 -60 -102 0
-109 -116 -60 -102 0
-110 -159 -117 -61 0
-110 -159 -117 -103 0
-110 -159 -61 -103 0
-110 -117 -61 -103 0
-111 -160 -118 -62 0
-111 -160 -118 -104 0
-111 -160 -62 -104 0
-111 -118 -62 -104 0
-112 -161 -119 -63 0
-112 -161 -119 -105 0
-112 -161 -63 -105 0
-112 -119 -63 -105 0
-113 -377 0
-113 -378 0
-113 -379 0
-114 377 0
-114 -378 0
-114 -379 0
-115 -377 0
-115 378 0
-115 -379 0
-116 377 0
-116 378 0
-116 -379 0
-117 -377 0
-117 -378 0
-117 379 0
-118 377 0
-118 -378 0
-118 379 0
-119 -377 0
-119 378 0
-119 379 0
-113 162 120 64 0
-113 162 120 106 0
-113 162 64 106 0
-113 120 64 106 0
-114 163 121 65 0
-114 163 121 107 0
-114 163 65 107 0
-114 121 65 107 0
-115 164 122 66 0
-115 164 122 108 0
-115 164 66 108 0
-115 122 66 108 0
-116 165 123 67 0
-116 165 123 109 0
-116 165 67 109 0
-116 123 67 109 0
-117 166 124 68 0
-117 166 124 110 0
-117 166 68 110 0
-117 124 68 110 0
-118 167 125 69 0
-118 167 125 111 0
-118 167 69 111 0
-118 125 69 111 0
-119 168 126 70 0
-119 168 126 112 0
-119 168 70 112 0
-119 126 70 112 0
-113 -162 -120 -64 0
-113 -162 -120 -106 0
-113 -162 -64 -106 0
-113 -120 -64 -106 0
-114 -163 -121 -65 0
-114 -163 -121 -107 0
-114 -163 -65 -107 0
-114 -121 -65 -107 0
-115 -164 -122 -66 0
-115 -164 -122 -108 0
-115 -164 -66 -108 0
-115 -122 -66 -108 0
-116 -165 -123 -67 0
-116 -165 -123 -109 0
-116 -165 -67 -109 0
-116 -123 -67 -109 0
-117 -166 -124 -68 0
-117 -166 -124 -110 0
-117 -166 -68 -110 0
-117 -124 -68 -110 0
-118 -167 -125 -69 0
-118 -167 -125 -111 0
-118 -167 -69 -111 0
-118 -125 -69 -111 0
-119 -168 -126 -70 0
-119 -168 -126 -112 0
-119 -168 -70 -112 0
-119 -126 -70 -112 0
-120 -380 0
-120 -381 0
-120 -382 0
-121 380 0
-121 -381 0
-121 -382 0
-122 -380 0
-122 381 0
-122 -382 0
-123 380 0
-123 381 0
-123 -382 0
-124 -380 0
-124 -381 0
-124 382 0
-125 380 0
-125 -381 0
-125 382 0
-126 -380 0
-126 381 0
-126 382 0
-120 169 127 71 0
-120 169 127 113 0
-120 169 71 113 0
-120 127 71 113 0
-121 170 128 72 0
-121 170 128 114 0
-121 170 72 114 0
-121 128 72 114 0
-122 171 129 73 0
-122 171 129 115 0
-122 171 73 115 0
-122 129 73 115 0
-123 172 130 74 0
-123 172 130 116 0
-123 172 74 116 0
-123 130 74 116 0
-124 173 131 75 0
-124 173 131 117 0
-124 173 75 117 0
-124 131 75 117 0
-125 174 132 76 0
-125 174 132 118 0
-125 174 76 118 0
-125 132 76 118 0
-126 175 133 77 0
-126 175 133 119 0
-126 175 77 119 0
-126 133 77 119 0
-120 -169 -127 -71 0
-120 -169 -127 -113 0
-120 -169 -71 -113 0
-120 -127 -71 -113 0
-121 -170 -128 -72 0
-121 -170 -128 -114 0
-121 -170 -72 -114 0
-121 -128 -72 -114 0
-122 -171 -129 -73 0
-122 -171 -129 -115 0
-122 -171 -73 -115 0
-122 -129 -73 -115 0
-123 -172 -130 -74 0
-123 -172 -130 -116 0
-123 -172 -74 -116 0
-123 -130 -74 -116 0
-124 -173 -131 -75 0
-124 -173 -131 -117 0
-124 -173 -75 -117 0
-124 -131 -75 -117 0
-125 -174 -132 -76 0
-125 -174 -132 -118 0
-125 -174 -76 -118 0
-125 -132 -76 -118 0
-126 -175 -133 -77 0
-126 -175 -133 -119 0
-126 -175 -77 -119 0
-126 -133 -77 -119 0
-127 -383 0
-127 -384 0
-127 -385 0
-128 383 0
-128 -384 0
-128 -385 0
-129 -383 0
-129 384 0
-129 -385 0
-130 383 0
-130 384 0
-130 -385 0
-131 -383 0
-131 -384 0
-131 385 0
-132 383 0
-132 -384 0
-132 385 0
-133 -383 0
-133 384 0
-133 385 0
-127 176 134 78 0
-127 176 134 120 0
-127 176 78 120 0
-127 134 78 120 0
-128 177 135 79 0
-128 177 135 121 0
-128 177 79 121 0
-128 135 79 121 0
-129 178 136 80 0
-129 178 136 122 0
-129 178 80 122 0
-129 136 80 122 0
-130 179 137 81 0
-130 179 137 123 0
-130 179 81 123 0
-130 137 81 123 0
-131 180 138 82 0
-131 180 138 124 0
-131 180 82 124 0
-131 138 82 124 0
-132 181 139 83 0
-132 181 139 125 0
-132 181 83 125 0
-132 139 83 125 0
-133 182 140 84 0
-133 182 140 126 0
-133 182 84 126 0
-133 140 84 126 0
-127 -176 -134 -78 0
-127 -176 -134 -120 0
-127 -176 -78 -120 0
-127 -134 -78 -120 0
-128 -177 -135 -79 0
-128 -177 -135 -121 0
-128 -177 -79 -121 0
-128 -135 -79 -121 0
-129 -178 -136 -80 0
-129 -178 -136 -122 0
-129 -178 -80 -122 0
-129 -136 -80 -122 0
-130 -179 -137 -81 0
-130 -179 -137 -123 0
-130 -179 -81 -123 0
-130 -137 -81 -123 0
-131 -180 -138 -82 0
-131 -180 -138 -124 0
-131 -180 -82 -124 0
-131 -138 -82 -124 0
-132 -181 -139 -83 0
-132 -181 -139 -125 0
-132 -181 -83 -125 0
-132 -139 -83 -125 0
-133 -182 -140 -84 0
-133 -182 -140 -126 0
-133 -182 -84 -126 0
-133 -140 -84 -126 0
138 0
-134 0
-135 0
-136 0
-137 0
-139 0
-140 0
187 145 89 131 0
-187 -145 0
-187 -89 0
-187 -131 0
-145 -89 0
-145 -131 0
-89 -131 0
-141 -386 0
-141 -387 0
-141 -388 0
-142 386 0
-142 -387 0
-142 -388 0
-143 -386 0
-143 387 0
-143 -388 0
-144 386 0
-144 387 0
-144 -388 0
-145 -386 0
-145 -387 0
-145 388 0
-146 386 0
-146 -387 0
-146 388 0
-147 -386 0
-147 387 0
-147 388 0
-141 190 134 0
-141 190 92 0
-141 134 92 0
-142 191 135 0
-142 191 93 0
-142 135 93 0
-143 192 136 0
-143 192 94 0
-143 136 94 0
-144 193 137 0
-144 193 95 0
-144 137 95 0
-145 194 138 0
-145 194 96 0
-145 138 96 0
-146 195 139 0
-146 195 97 0
-146 139 97 0
-147 196 140 0
-147 196 98 0
-147 140 98 0
-141 -190 -134 -92 0
-142 -191 -135 -93 0
-143 -192 -136 -94 0
-144 -193 -137 -95 0
-145 -194 -138 -96 0
-146 -195 -139 -97 0
-147 -196 -140 -98 0
148 0
-149 0
-150 0
-151 0
-152 0
-153 0
-154 0
197 155 99 0
-197 -155 0
-197 -99 0
-155 -99 0
160 0
-155 0
-156 0
-157 0
-158 0
-159 0
-161 0
209 167 111 153 0
-209 -167 0
-209 -111 0
-209 -153 0
-167 -111 0
-167 -153 0
-111 -153 0
-162 -389 0
-162 -390 0
-162 -391 0
-163 389 0
-163 -390 0
-163 -391 0
-164 -389 0
-164 390 0
-164 -391 0
-165 389 0
-165 390 0
-165 -391 0
-166 -389 0
-166 -390 0
-166 391 0
-167 389 0
-167 -390 0
-167 391 0
-168 -389 0
-168 390 0
-168 391 0
-162 211 169 113 0
-162 211 169 155 0
-162 211 113 155 0
-162 169 113 155 0
-163 212 170 114 0
-163 212 170 156 0
-163 212 114 156 0
-163 170 114 156 0
-164 213 171 115 0
-164 213 171 157 0
-164 213 115 157 0
-164 171 115 157 0
-165 214 172 116 0
-165 214 172 158 0
-165 214 116 158 0
-165 172 116 158 0
-166 215 173 117 0
-166 215 173 159 0
-166 215 117 159 0
-166 173 117 159 0
-167 216 174 118 0
-167 216 174 160 0
-167 216 118 160 0
-167 174 118 160 0
-168 217 175 119 0
-168 217 175 161 0
-168 217 119 161 0
-168 175 119 161 0
-162 -211 -169 -113 0
-162 -211 -169 -155 0
-162 -211 -113 -155 0
-162 -169 -113 -155 0
-163 -212 -170 -114 0
-163 -212 -170 -156 0
-163 -212 -114 -156 0
-163 -170 -114 -156 0
-164 -213 -171 -115 0
-164 -213 -171 -157 0
-164 -213 -115 -157 0
-164 -171 -115 -157 0
-165 -214 -172 -116 0
-165 -214 -172 -158 0
-165 -214 -116 -158 0
-165 -172 -116 -158 0
-166 -215 -173 -117 0
-166 -215 -173 -159 0
-166 -215 -117 -159 0
-166 -173 -117 -159 0
-167 -216 -174 -118 0
-167 -216 -174 -160 0
-167 -216 -118 -160 0
-167 -174 -118 -160 0
-168 -217 -175 -119 0
-168 -217 -175 -161 0
-168 -217 -119 -161 0
-168 -175 -119 -161 0
172 0
-169 0
-170 0
-171 0
-173 0
-174 0
-175 0
221 179 123 165 0
-221 -179 0
-221 -123 0
-221 -165 0
-179 -123 0
-179 -165 0
-123 -165 0
-176 -392 0
-176 -393 0
-176 -394 0
-177 392 0
-177 -393 0
-177 -394 0
-178 -392 0
-178 393 0
-178 -394 0
-179 392 0
-179 393 0
-179 -394 0
-180 -392 0
-180 -393 0
-180 394 0
-181 392 0
-181 -393 0
-181 394 0
-182 -392 0
-182 393 0
-182 394 0
-176 225 183 127 0
-176 225 183 169 0
-176 225 127 169 0
-176 183 127 169 0
-177 226 184 128 0
-177 226 184 170 0
-177 226 128 170 0
-177 184 128 170 0
-178 227 185 129 0
-178 227 185 171 0
-178 227 129 171 0
-178 185 129 171 0
-179 228 186 130 0
-179 228 186 172 0
-179 228 130 172 0
-179 186 130 172 0
-180 229 187 131 0
-180 229 187 173 0
-180 229 131 173 0
-180 187 131 173 0
-181 230 188 132 0
-181 230 188 174 0
-181 230 132 174 0
-181 188 132 174 0
-182 231 189 133 0
-182 231 189 175 0
-182 231 133 175 0
-182 189 133 175 0
-176 -225 -183 -127 0
-176 -225 -183 -169 0
-176 -225 -127 -169 0
-176 -183 -127 -169 0
-177 -226 -184 -128 0
-177 -226 -184 -170 0
-177 -226 -128 -170 0
-177 -184 -128 -170 0
-178 -227 -185 -129 0
-178 -227 -185 -171 0
-178 -227 -129 -171 0
-178 -185 -129 -171 0
-179 -228 -186 -130 0
-179 -228 -186 -172 0
-179 -228 -130 -172 0
-179 -186 -130 -172 0
-180 -229 -187 -131 0
-180 -229 -187 -173 0
-180 -229 -131 -173 0
-180 -187 -131 -173 0
-181 -230 -188 -132 0
-181 -230 -188 -174 0
-181 -230 -132 -174 0
-181 -188 -132 -174 0
-182 -231 -189 -133 0
-182 -231 -189 -175 0
-182 -231 -133 -175 0
-182 -189 -133 -175 0
-183 -395 0
-183 -396 0
-183 -397 0
-184 395 0
-184 -396 0
-184 -397 0
-185 -395 0
-185 396 0
-185 -397 0
-186 395 0
-186 396 0
-186 -397 0
-187 -395 0
-187 -396 0
-187 397 0
-188 395 0
-188 -396 0
-188 397 0
-189 -395 0
-189 396 0
-189 397 0
-183 232 190 134 0
-183 232 190 176 0
-183 232 134 176 0
-183 190 134 176 0
-184 233 191 135 0
-184 233 191 177 0
-184 233 135 177 0
-184 191 135 177 0
-185 234 192 136 0
-185 234 192 178 0
-185 234 136 178 0
-185 192 136 178 0
-186 235 193 137 0
-186 235 193 179 0
-186 235 137 179 0
-186 193 137 179 0
-187 236 194 138 0
-187 236 194 180 0
-187 236 138 180 0
-187 194 138 180 0
-188 237 195 139 0
-188 237 195 181 0
-188 237 139 181 0
-188 195 139 181 0
-189 238 196 140 0
-189 238 196 182 0
-189 238 140 182 0
-189 196 140 182 0
-183 -232 -190 -134 0
-183 -232 -190 -176 0
-183 -232 -134 -176 0
-183 -190 -134 -176 0
-184 -233 -191 -135 0
-184 -233 -191 -177 0
-184 -233 -135 -177 0
-184 -191 -135 -177 0
-185 -234 -192 -136 0
-185 -234 -192 -178 0
-185 -234 -136 -178 0
-185 -192 -136 -178 0
-186 -235 -193 -137 0
-186 -235 -193 -179 0
-186 -235 -137 -179 0
-186 -193 -137 -179 0
-187 -236 -194 -138 0
-187 -236 -194 -180 0
-187 -236 -138 -180 0
-187 -194 -138 -180 0
-188 -237 -195 -139 0
-188 -237 -195 -181 0
-188 -237 -139 -181 0
-188 -195 -139 -181 0
-189 -238 -196 -140 0
-189 -238 -196 -182 0
-189 -238 -140 -182 0
-189 -196 -140 -182 0
-190 -398 0
-190 -399 0
-190 -400 0
-191 398 0
-191 -399 0
-191 -400 0
-192 -398 0
-192 399 0
-192 -400 0
-193 398 0
-193 399 0
-193 -400 0
-194 -398 0
-194 -399 0
-194 400 0
-195 398 0
-195 -399 0
-195 400 0
-196 -398 0
-196 399 0
-196 400 0
-190 239 183 0
-190 239 141 0
-190 183 141 0
-191 240 184 0
-191 240 142 0
-191 184 142 0
-192 241 185 0
-192 241 143 0
-192 185 143 0
-193 242 186 0
-193 242 144 0
-193 186 144 0
-194 243 187 0
-194 243 145 0
-194 187 145 0
-195 244 188 0
-195 244 146 0
-195 188 146 0
-196 245 189 0
-196 245 147 0
-196 189 147 0
-190 -239 -183 -141 0
-191 -240 -184 -142 0
-192 -241 -185 -143 0
-193 -242 -186 -144 0
-194 -243 -187 -145 0
-195 -244 -188 -146 0
-196 -245 -189 -147 0
201 0
-197 0
-198 0
-199 0
-200 0
-202 0
-203 0
250 208 152 0
-250 -208 0
-250 -152 0
-208 -152 0
-204 -401 0
-204 -402 0
-204 -403 0
-205 401 0
-205 -402 0
-205 -403 0
-206 -401 0
-206 402 0
-206 -403 0
-207 401 0
-207 402 0
-207 -403 0
-208 -401 0
-208 -402 0
-208 403 0
-209 401 0
-209 -402 0
-209 403 0
-210 -401 0
-210 402 0
-210 403 0
-204 253 211 155 0
-204 253 211 197 0
-204 253 155 197 0
-204 211 155 197 0
-205 254 212 156 0
-205 254 212 198 0
-205 254 156 198 0
-205 212 156 198 0
-206 255 213 157 0
-206 255 213 199 0
-206 255 157 199 0
-206 213 157 199 0
-207 256 214 158 0
-207 256 214 200 0
-207 256 158 200 0
-207 214 158 200 0
-208 257 215 159 0
-208 257 215 201 0
-208 257 159 201 0
-208 215 159 201 0
-209 258 216 160 0
-209 258 216 202 0
-209 258 160 202 0
-209 216 160 202 0
-210 259 217 161 0
-210 259 217 203 0
-210 259 161 203 0
-210 217 161 203 0
-204 -253 -211 -155 0
-204 -253 -211 -197 0
-204 -253 -155 -197 0
-204 -211 -155 -197 0
-205 -254 -212 -156 0
-205 -254 -212 -198 0
-205 -254 -156 -198 0
-205 -212 -156 -198 0
-206 -255 -213 -157 0
-206 -255 -213 -199 0
-206 -255 -157 -199 0
-206 -213 -157 -199 0
-207 -256 -214 -158 0
-207 -256 -214 -200 0
-207 -256 -158 -200 0
-207 -214 -158 -200 0
-208 -257 -215 -159 0
-208 -257 -215 -201 0
-208 -257 -159 -201 0
-208 -215 -159 -201 0
-209 -258 -216 -160 0
-209 -258 -216 -202 0
-209 -258 -160 -202 0
-209 -216 -160 -202 0
-210 -259 -217 -161 0
-210 -259 -217 -203 0
-210 -259 -161 -203 0
-210 -217 -161 -203 0
-211 -404 0
-211 -405 0
-211 -406 0
-212 404 0
-212 -405 0
-212 -406 0
-213 -404 0
-213 405 0
-213 -406 0
-214 404 0
-214 405 0
-214 -406 0
-215 -404 0
-215 -405 0
-215 406 0
-216 404 0
-216 -405 0
-216 406 0
-217 -404 0
-217 405 0
-217 406 0
-211 260 218 162 0
-211 260 218 204 0
-211 260 162 204 0
-211 218 162 204 0
-212 261 219 163 0
-212 261 219 205 0
-212 261 163 205 0
-212 219 163 205 0
-213 262 220 164 0
-213 262 220 206 0
-213 262 164 206 0
-213 220 164 206 0
-214 263 221 165 0
-214 263 221 207 0
-214 263 165 207 0
-214 221 165 207 0
-215 264 222 166 0
-215 264 222 208 0
-215 264 166 208 0
-215 222 166 208 0
-216 265 223 167 0
-216 265 223 209 0
-216 265 167 209 0
-216 223 167 209 0
-217 266 224 168 0
-217 266 224 210 0
-217 266 168 210 0
-217 224 168 210 0
-211 -260 -218 -162 0
-211 -260 -218 -204 0
-211 -260 -162 -204 0
-211 -218 -162 -204 0
-212 -261 -219 -163 0
-212 -261 -219 -205 0
-212 -261 -163 -205 0
-212 -219 -163 -205 0
-213 -262 -220 -164 0
-213 -262 -220 -206 0
-213 -262 -164 -206 0
-213 -220 -164 -206 0
-214 -263 -221 -165 0
-214 -263 -221 -207 0
-214 -263 -165 -207 0
-214 -221 -165 -207 0
-215 -264 -222 -166 0
-215 -264 -222 -208 0
-215 -264 -166 -208 0
-215 -222 -166 -208 0
-216 -265 -223 -167 0
-216 -265 -223 -209 0
-216 -265 -167 -209 0
-216 -223 -167 -209 0
-217 -266 -224 -168 0
-217 -266 -224 -210 0
-217 -266 -168 -210 0
-217 -224 -168 -210 0
223 0
-218 0
-219 0
-220 0
-221 0
-222 0
-224 0
272 230 174 216 0
-272 -230 0
-272 -174 0
-272 -216 0
-230 -174 0
-230 -216 0
-174 -216 0
-225 -407 0
-225 -408 0
-225 -409 0
-226 407 0
-226 -408 0
-226 -409 0
-227 -407 0
-227 408 0
-227 -409 0
-228 407 0
-228 408 0
-228 -409 0
-229 -407 0
-229 -408 0
-229 409 0
-230 407 0
-230 -408 0
-230 409 0
-231 -407 0
-231 408 0
-231 409 0
-225 274 232 176 0
-225 274 232 218 0
-225 274 176 218 0
-225 232 176 218 0
-226 275 233 177 0
-226 275 233 219 0
-226 275 177 219 0
-226 233 177 219 0
-227 276 234 178 0
-227 276 234 220 0
-227 276 178 220 0
-227 234 178 220 0
-228 277 235 179 0
-228 277 235 221 0
-228 277 179 221 0
-228 235 179 221 0
-229 278 236 180 0
-229 278 236 222 0
-229 278 180 222 0
-229 236 180 222 0
-230 279 237 181 0
-230 279 237 223 0
-230 279 181 223 0
-230 237 181 223 0
-231 280 238 182 0
-231 280 238 224 0
-231 280 182 224 0
-231 238 182 224 0
-225 -274 -232 -176 0
-225 -274 -232 -218 0
-225 -274 -176 -218 0
-225 -232 -176 -218 0
-226 -275 -233 -177 0
-226 -275 -233 -219 0
-226 -275 -177 -219 0
-226 -233 -177 -219 0
-227 -276 -234 -178 0
-227 -276 -234 -220 0
-227 -276 -178 -220 0
-227 -234 -178 -220 0
-228 -277 -235 -179 0
-228 -277 -235 -221 0
-228 -277 -179 -221 0
-228 -235 -179 -221 0
-229 -278 -236 -180 0
-229 -278 -236 -222 0
-229 -278 -180 -222 0
-229 -236 -180 -222 0
-230 -279 -237 -181 0
-230 -279 -237 -223 0
-230 -279 -181 -223 0
-230 -237 -181 -223 0
-231 -280 -238 -182 0
-231 -280 -238 -224 0
-231 -280 -182 -224 0
-231 -238 -182 -224 0
-232 -410 0
-232 -411 0
-232 -412 0
-233 410 0
-233 -411 0
-233 -412 0
-234 -410 0
-234 411 0
-234 -412 0
-235 410 0
-235 411 0
-235 -412 0
-236 -410 0
-236 -411 0
-236 412 0
-237 410 0
-237 -411 0
-237 412 0
-238 -410 0
-238 411 0
-238 412 0
-232 281 239 183 0
-232 281 239 225 0
-232 281 183 225 0
-232 239 183 225 0
-233 282 240 184 0
-233 282 240 226 0
-233 282 184 226 0
-233 240 184 226 0
-234 283 241 185 0
-234 283 241 227 0
-234 283 185 227 0
-234 241 185 227 0
-235 284 242 186 0
-235 284 242 228 0
-235 284 186 228 0
-235 242 186 228 0
-236 285 243 187 0
-236 285 243 229 0
-236 285 187 229 0
-236 243 187 229 0
-237 286 244 188 0
-237 286 244 230 0
-237 286 188 230 0
-237 244 188 230 0
-238 287 245 189 0
-238 287 245 231 0
-238 287 189 231 0
-238 245 189 231 0
-232 -281 -239 -183 0
-232 -281 -239 -225 0
-232 -281 -183 -225 0
-232 -239 -183 -225 0
-233 -282 -240 -184 0
-233 -282 -240 -226 0
-233 -282 -184 -226 0
-233 -240 -184 -226 0
-234 -283 -241 -185 0
-234 -283 -241 -227 0
-234 -283 -185 -227 0
-234 -241 -185 -227 0
-235 -284 -242 -186 0
-235 -284 -242 -228 0
-235 -284 -186 -228 0
-235 -242 -186 -228 0
-236 -285 -243 -187 0
-236 -285 -243 -229 0
-236 -285 -187 -229 0
-236 -243 -187 -229 0
-237 -286 -244 -188 0
-237 -286 -244 -230 0
-237 -286 -188 -230 0
-237 -244 -188 -230 0
-238 -287 -245 -189 0
-238 -287 -245 -231 0
-238 -287 -189 -231 0
-238 -245 -189 -231 0
-239 -413 0
-239 -414 0
-239 -415 0
-240 413 0
-240 -414 0
-240 -415 0
-241 -413 0
-241 414 0
-241 -415 0
-242 413 0
-242 414 0
-242 -415 0
-243 -413 0
-243 -414 0
-243 415 0
-244 413 0
-244 -414 0
-244 415 0
-245 -413 0
-245 414 0
-245 415 0
-239 288 232 0
-239 288 190 0
-239 232 190 0
-240 289 233 0
-240 289 191 0
-240 233 191 0
-241 290 234 0
-241 290 192 0
-241 234 192 0
-242 291 235 0
-242 291 193 0
-242 235 193 0
-243 292 236 0
-243 292 194 0
-243 236 194 0
-244 293 237 0
-244 293 195 0
-244 237 195 0
-245 294 238 0
-245 294 196 0
-245 238 196 0
-239 -288 -232 -190 0
-240 -289 -233 -191 0
-241 -290 -234 -192 0
-242 -291 -235 -193 0
-243 -292 -236 -194 0
-244 -293 -237 -195 0
-245 -294 -238 -196 0
-246 -416 0
-246 -417 0
-246 -418 0
-247 416 0
-247 -417 0
-247 -418 0
-248 -416 0
-248 417 0
-248 -418 0
-249 416 0
-249 417 0
-249 -418 0
-250 -416 0
-250 -417 0
-250 418 0
-251 416 0
-251 -417 0
-251 418 0
-252 -416 0
-252 417 0
-252 418 0
-246 295 253 0
-246 295 197 0
-246 253 197 0
-247 296 254 0
-247 296 198 0
-247 254 198 0
-248 297 255 0
-248 297 199 0
-248 255 199 0
-249 298 256 0
-249 298 200 0
-249 256 200 0
-250 299 257 0
-250 299 201 0
-250 257 201 0
-251 300 258 0
-251 300 202 0
-251 258 202 0
-252 301 259 0
-252 301 203 0
-252 259 203 0
-246 -295 -253 -197 0
-247 -296 -254 -198 0
-248 -297 -255 -199 0
-249 -298 -256 -200 0
-250 -299 -257 -201 0
-251 -300 -258 -202 0
-252 -301 -259 -203 0
259 0
-253 0
-254 0
-255 0
-256 0
-257 0
-258 0
308 266 210 252 0
-308 -266 0
-308 -210 0
-308 -252 0
-266 -210 0
-266 -252 0
-210 -252 0
-260 -419 0
-260 -420 0
-260 -421 0
-261 419 0
-261 -420 0
-261 -421 0
-262 -419 0
-262 420 0
-262 -421 0
-263 419 0
-263 420 0
-263 -421 0
-264 -419 0
-264 -420 0
-264 421 0
-265 419 0
-265 -420 0
-265 421 0
-266 -419 0
-266 420 0
-266 421 0
-260 309 267 211 0
-260 309 267 253 0
-260 309 211 253 0
-260 267 211 253 0
-261 310 268 212 0
-261 310 268 254 0
-261 310 212 254 0
-261 268 212 254 0
-262 311 269 213 0
-262 311 269 255 0
-262 311 213 255 0
-262 269 213 255 0
-263 312 270 214 0
-263 312 270 256 0
-263 312 214 256 0
-263 270 214 256 0
-264 313 271 215 0
-264 313 271 257 0
-264 313 215 257 0
-264 271 215 257 0
-265 314 272 216 0
-265 314 272 258 0
-265 314 216 258 0
-265 272 216 258 0
-266 315 273 217 0
-266 315 273 259 0
-266 315 217 259 0
-266 273 217 259 0
-260 -309 -267 -211 0
-260 -309 -267 -253 0
-260 -309 -211 -253 0
-260 -267 -211 -253 0
-261 -310 -268 -212 0
-261 -310 -268 -254 0
-261 -310 -212 -254 0
-261 -268 -212 -254 0
-262 -311 -269 -213 0
-262 -311 -269 -255 0
-262 -311 -213 -255 0
-262 -269 -213 -255 0
-263 -312 -270 -214 0
-263 -312 -270 -256 0
-263 -312 -214 -256 0
-263 -270 -214 -256 0
-264 -313 -271 -215 0
-264 -313 -271 -257 0
-264 -313 -215 -257 0
-264 -271 -215 -257 0
-265 -314 -272 -216 0
-265 -314 -272 -258 0
-265 -314 -216 -258 0
-265 -272 -216 -258 0
-266 -315 -273 -217 0
-266 -315 -273 -259 0
-266 -315 -217 -259 0
-266 -273 -217 -259 0
-267 -422 0
-267 -423 0
-267 -424 0
-268 422 0
-268 -423 0
-268 -424 0
-269 -422 0
-269 423 0
-269 -424 0
-270 422 0
-270 423 0
-270 -424 0
-271 -422 0
-271 -423 0
-271 424 0
-272 422 0
-272 -423 0
-272 424 0
-273 -422 0
-273 423 0
-273 424 0
-267 316 274 218 0
-267 316 274 260 0
-267 316 218 260 0
-267 274 218 260 0
-268 317 275 219 0
-268 317 275 261 0
-268 317 219 261 0
-268 275 219 261 0
-269 318 276 220 0
-269 318 276 262 0
-269 318 220 262 0
-269 276 220 262 0
-270 319 277 221 0
-270 319 277 263 0
-270 319 221 263 0
-270 277 221 263 0
-271 320 278 222 0
-271 320 278 264 0
-271 320 222 264 0
-271 278 222 264 0
-272 321 279 223 0
-272 321 279 265 0
-272 321 223 265 0
-272 279 223 265 0
-273 322 280 224 0
-273 322 280 266 0
-273 322 224 266 0
-273 280 224 266 0
-267 -316 -274 -218 0
-267 -316 -274 -260 0
-267 -316 -218 -260 0
-267 -274 -218 -260 0
-268 -317 -275 -219 0
-268 -317 -275 -261 0
-268 -317 -219 -261 0
-268 -275 -219 -261 0
-269 -318 -276 -220 0
-269 -318 -276 -262 0
-269 -318 -220 -262 0
-269 -276 -220 -262 0
-270 -319 -277 -221 0
-270 -319 -277 -263 0
-270 -319 -221 -263 0
-270 -277 -221 -263 0
-271 -320 -278 -222 0
-271 -320 -278 -264 0
-271 -320 -222 -264 0
-271 -278 -222 -264 0
-272 -321 -279 -223 0
-272 -321 -279 -265 0
-272 -321 -223 -265 0
-272 -279 -223 -265 0
-273 -322 -280 -224 0
-273 -322 -280 -266 0
-273 -322 -224 -266 0
-273 -280 -224 -266 0
-274 -425 0
-274 -426 0
-274 -427 0
-275 425 0
-275 -426 0
-275 -427 0
-276 -425 0
-276 426 0
-276 -427 0
-277 425 0
-277 426 0
-277 -427 0
-278 -425 0
-278 -426 0
-278 427 0
-279 425 0
-279 -426 0
-279 427 0
-280 -425 0
-280 426 0
-280 427 0
-274 323 281 225 0
-274 323 281 267 0
-274 323 225 267 0
-274 281 225 267 0
-275 324 282 226 0
-275 324 282 268 0
-275 324 226 268 0
-275 282 226 268 0
-276 325 283 227 0
-276 325 283 269 0
-276 325 227 269 0
-276 283 227 269 0
-277 326 284 228 0
-277 326 284 270 0
-277 326 228 270 0
-277 284 228 270 0
-278 327 285 229 0
-278 327 285 271 0
-278 327 229 271 0
-278 285 229 271 0
-279 328 286 230 0
-279 328 286 272 0
-279 328 230 272 0
-279 286 230 272 0
-280 329 287 231 0
-280 329 287 273 0
-280 329 231 273 0
-280 287 231 273 0
-274 -323 -281 -225 0
-274 -323 -281 -267 0
-274 -323 -225 -267 0
-274 -281 -225 -267 0
-275 -324 -282 -226 0
-275 -324 -282 -268 0
-275 -324 -226 -268 0
-275 -282 -226 -268 0
-276 -325 -283 -227 0
-276 -325 -283 -269 0
-276 -325 -227 -269 0
-276 -283 -227 -269 0
-277 -326 -284 -228 0
-277 -326 -284 -270 0
-277 -326 -228 -270 0
-277 -284 -228 -270 0
-278 -327 -285 -229 0
-278 -327 -285 -271 0
-278 -327 -229 -271 0
-278 -285 -229 -271 0
-279 -328 -286 -230 0
-279 -328 -286 -272 0
-279 -328 -230 -272 0
-279 -286 -230 -272 0
-280 -329 -287 -231 0
-280 -329 -287 -273 0
-280 -329 -231 -273 0
-280 -287 -231 -273 0
-281 -428 0
-281 -429 0
-281 -430 0
-282 428 0
-282 -429 0
-282 -430 0
-283 -428 0
-283 429 0
-283 -430 0
-284 428 0
-284 429 0
-284 -430 0
-285 -428 0
-285 -429 0
-285 430 0
-286 428 0
-286 -429 0
-286 430 0
-287 -428 0
-287 429 0
-287 430 0
-281 330 288 232 0
-281 330 288 274 0
-281 330 232 274 0
-281 288 232 274 0
-282 331 289 233 0
-282 331 289 275 0
-282 331 233 275 0
-282 289 233 275 0
-283 332 290 234 0
-283 332 290 276 0
-283 332 234 276 0
-283 290 234 276 0
-284 333 291 235 0
-284 333 291 277 0
-284 333 235 277 0
-284 291 235 277 0
-285 334 292 236 0
-285 334 292 278 0
-285 334 236 278 0
-285 292 236 278 0
-286 335 293 237 0
-286 335 293 279 0
-286 335 237 279 0
-286 293 237 279 0
-287 336 294 238 0
-287 336 294 280 0
-287 336 238 280 0
-287 294 238 280 0
-281 -330 -288 -232 0
-281 -330 -288 -274 0
-281 -330 -232 -274 0
-281 -288 -232 -274 0
-282 -331 -289 -233 0
-282 -331 -289 -275 0
-282 -331 -233 -275 0
-282 -289 -233 -275 0
-283 -332 -290 -234 0
-283 -332 -290 -276 0
-283 -332 -234 -276 0
-283 -290 -234 -276 0
-284 -333 -291 -235 0
-284 -333 -291 -277 0
-284 -333 -235 -277 0
-284 -291 -235 -277 0
-285 -334 -292 -236 0
-285 -334 -292 -278 0
-285 -334 -236 -278 0
-285 -292 -236 -278 0
-286 -335 -293 -237 0
-286 -335 -293 -279 0
-286 -335 -237 -279 0
-286 -293 -237 -279 0
-287 -336 -294 -238 0
-287 -336 -294 -280 0
-287 -336 -238 -280 0
-287 -294 -238 -280 0
-288 -431 0
-288 -432 0
-288 -433 0
-289 431 0
-289 -432 0
-289 -433 0
-290 -431 0
-290 432 0
-290 -433 0
-291 431 0
-291 432 0
-291 -433 0
-292 -431 0
-292 -432 0
-292 433 0
-293 431 0
-293 -432 0
-293 433 0
-294 -431 0
-294 432 0
-294 433 0
-288 337 281 0
-288 337 239 0
-288 281 239 0
-289 338 282 0
-289 338 240 0
-289 282 240 0
-290 339 283 0
-290 339 241 0
-290 283 241 0
-291 340 284 0
-291 340 242 0
-291 284 242 0
-292 341 285 0
-292 341 243 0
-292 285 243 0
-293 342 286 0
-293 342 244 0
-293 286 244 0
-294 343 287 0
-294 343 245 0
-294 287 245 0
-288 -337 -281 -239 0
-289 -338 -282 -240 0
-290 -339 -283 -241 0
-291 -340 -284 -242 0
-292 -341 -285 -243 0
-293 -342 -286 -244 0
-294 -343 -287 -245 0
301 0
-295 0
-296 0
-297 0
-298 0
-299 0
-300 0
252 308 0
-252 -308 0
304 0
-302 0
-303 0
-305 0
-306 0
-307 0
-308 0
255 311 297 0
-255 -311 0
-255 -297 0
-311 -297 0
-309 -434 0
-309 -435 0
-309 -436 0
-310 434 0
-310 -435 0
-310 -436 0
-311 -434 0
-311 435 0
-311 -436 0
-312 434 0
-312 435 0
-312 -436 0
-313 -434 0
-313 -435 0
-313 436 0
-314 434 0
-314 -435 0
-314 436 0
-315 -434 0
-315 435 0
-315 436 0
-309 260 316 0
-309 260 302 0
-309 316 302 0
-310 261 317 0
-310 261 303 0
-310 317 303 0
-311 262 318 0
-311 262 304 0
-311 318 304 0
-312 263 319 0
-312 263 305 0
-312 319 305 0
-313 264 320 0
-313 264 306 0
-313 320 306 0
-314 265 321 0
-314 265 307 0
-314 321 307 0
-315 266 322 0
-315 266 308 0
-315 322 308 0
-309 -260 -316 -302 0
-310 -261 -317 -303 0
-311 -262 -318 -304 0
-312 -263 -319 -305 0
-313 -264 -320 -306 0
-314 -265 -321 -307 0
-315 -266 -322 -308 0
-316 -437 0
-316 -438 0
-316 -439 0
-317 437 0
-317 -438 0
-317 -439 0
-318 -437 0
-318 438 0
-318 -439 0
-319 437 0
-319 438 0
-319 -439 0
-320 -437 0
-320 -438 0
-320 439 0
-321 437 0
-321 -438 0
-321 439 0
-322 -437 0
-322 438 0
-322 439 0
-316 267 323 0
-316 267 309 0
-316 323 309 0
-317 268 324 0
-317 268 310 0
-317 324 310 0
-318 269 325 0
-318 269 311 0
-318 325 311 0
-319 270 326 0
-319 270 312 0
-319 326 312 0
-320 271 327 0
-320 271 313 0
-320 327 313 0
-321 272 328 0
-321 272 314 0
-321 328 314 0
-322 273 329 0
-322 273 315 0
-322 329 315 0
-316 -267 -323 -309 0
-317 -268 -324 -310 0
-318 -269 -325 -311 0
-319 -270 -326 -312 0
-320 -271 -327 -313 0
-321 -272 -328 -314 0
-322 -273 -329 -315 0
-323 -440 0
-323 -441 0
-323 -442 0
-324 440 0
-324 -441 0
-324 -442 0
-325 -440 0
-325 441 0
-325 -442 0
-326 440 0
-326 441 0
-326 -442 0
-327 -440 0
-327 -441 0
-327 442 0
-328 440 0
-328 -441 0
-328 442 0
-329 -440 0
-329 441 0
-329 442 0
-323 274 330 0
-323 274 316 0
-323 330 316 0
-324 275 331 0
-324 275 317 0
-324 331 317 0
-325 276 332 0
-325 276 318 0
-325 332 318 0
-326 277 333 0
-326 277 319 0
-326 333 319 0
-327 278 334 0
-327 278 320 0
-327 334 320 0
-328 279 335 0
-328 279 321 0
-328 335 321 0
-329 280 336 0
-329 280 322 0
-329 336 322 0
-323 -274 -330 -316 0
-324 -275 -331 -317 0
-325 -276 -332 -318 0
-326 -277 -333 -319 0
-327 -278 -334 -320 0
-328 -279 -335 -321 0
-329 -280 -336 -322 0
-330 -443 0
-330 -444 0
-330 -445 0
-331 443 0
-331 -444 0
-331 -445 0
-332 -443 0
-332 444 0
-332 -445 0
-333 443 0
-333 444 0
-333 -445 0
-334 -443 0
-334 -444 0
-334 445 0
-335 443 0
-335 -444 0
-335 445 0
-336 -443 0
-336 444 0
-336 445 0
-330 281 337 0
-330 281 323 0
-330 337 323 0
-331 282 338 0
-331 282 324 0
-331 338 324 0
-332 283 339 0
-332 283 325 0
-332 339 325 0
-333 284 340 0
-333 284 326 0
-333 340 326 0
-334 285 341 0
-334 285 327 0
-334 341 327 0
-335 286 342 0
-335 286 328 0
-335 342 328 0
-336 287 343 0
-336 287 329 0
-336 343 329 0
-330 -281 -337 -323 0
-331 -282 -338 -324 0
-332 -283 -339 -325 0
-333 -284 -340 -326 0
-334 -285 -341 -327 0
-335 -286 -342 -328 0
-336 -287 -343 -329 0
-337 -446 0
-337 -447 0
-337 -448 0
-338 446 0
-338 -447 0
-338 -448 0
-339 -446 0
-339 447 0
-339 -448 0
-340 446 0
-340 447 0
-340 -448 0
-341 -446 0
-341 -447 0
-341 448 0
-342 446 0
-342 -447 0
-342 448 0
-343 -446 0
-343 447 0
-343 448 0
-337 288 0
-337 330 0
-338 289 0
-338 331 0
-339 290 0
-339 332 0
-340 291 0
-340 333 0
-341 292 0
-341 334 0
-342 293 0
-342 335 0
-343 294 0
-343 336 0
50 57 71 78 92 0
99 106 113 120 127 141 0
52 59 73 80 94 0
101 108 115 122 129 143 0
164 178 185 192 0
206 213 227 234 241 0
248 262 269 276 283 290 0
17 115 164 213 262 311 0
24 73 122 269 318 0
80 129 178 227 276 325 0
102 109 116 123 130 144 0
166 180 187 194 0
12 61 110 208 0
19 117 166 215 264 313 0
26 75 124 271 320 0
82 131 180 229 278 327 0
20 118 167 216 265 314 0